\ENCODING=ISO-8859-1
\Problem name: timtab1CUTS.mps

Maximize
 obj: 849 x1               -242 x2               + 452 x3               + 1963 x4               + 731 x5               + 1950 x6               -1481 x7               -1149 x8               -407 x9               -1192 x10              -110 x11              -1168 x12              + 1067 x13              -1816 x14              + 432 x15              + 1423 x16              + 438 x17              + 1328 x18              + 959 x19              + 164 x20              -230 x21              + 1594 x22              + 519 x23              + 895 x24              -1666 x25              -1912 x26              + 1273 x27              + 1073 x28              -520 x29              + 1087 x30              + 1065 x31              -1674 x32              + 199 x33              -486 x34              -356 x35              -1073 x36              -538 x37              + 165 x38              -219 x39              -1591 x40              + 975 x41              -975 x42              + 601 x43              + 1396 x44              + 568 x45              -970 x46              + 816 x47              -997 x48              -1645 x49              + 1129 x50              + 1169 x51              + 127 x52              + 720 x53              + 1042 x54              + 376 x55              + 1057 x56              + 1132 x57              + 1004 x58              + 1484 x59              -1390 x60              + 1445 x61              + 546 x62              + 295 x63              -358 x64              -585 x65              + 1941 x66              + 1928 x67              -1769 x68              + 103 x69              + 1063 x70              -1 x71              + 433 x72              -557 x73              -1403 x74              -174 x75              -1992 x76              + 987 x77              -3 x78              -986 x79              + 1344 x80              -877 x81              -1820 x82              + 826 x83              -802 x84              -1423 x85              + 556 x86              -1748 x87              + 1711 x88              + 914 x89              -910 x90              -325 x91              + 357 x92              -1010 x93              + 1973 x94              -647 x95              + 1764 x96              -737 x97              -722 x98              + 1997 x99              + 1369 x100             -1661 x101             + 1351 x102             + 1156 x103             -216 x104             + 1950 x105             -1021 x106             -206 x107             + 934 x108             + 978 x109             -1838 x110             + 1633 x111             -544 x112             -298 x113             + 1813 x114             + 656 x115             + 281 x116             + 1723 x117             -1738 x118             -11 x119             + 635 x120             -646 x121             -981 x122             -1011 x123             + 1703 x124             -1011 x125             + 344 x126             + 1465 x127             + 254 x128             -1024 x129             + 1459 x130             + 977 x131             -683 x132             -1841 x133             + 130 x134             -1545 x135             -1893 x136             -1536 x137             + 1609 x138             -1605 x139             -1204 x140             + 1773 x141             -618 x142             + 1611 x143             + 829 x144             + 549 x145             + 264 x146             -893 x147             + 270 x148             + 528 x149             -1549 x150             -1098 x151             -764 x152             -528 x153             + 1250 x154             -1063 x155             + 1820 x156             + 948 x157             -1601 x158             + 71 x159             + 1926 x160             -788 x161             + 403 x162             + 598 x163             -626 x164             -113 x165             + 1055 x166             + 840 x167             + 1710 x168             -1987 x169             -1411 x170             -139 x171             -859 x172             -26 x173             -531 x174             + 1972 x175             -123 x176             + 1736 x177             + 434 x178             -1856 x179             + 261 x180             + 887 x181             + 405 x182             + 1500 x183             -287 x184             -348 x185             -209 x186             -470 x187             -1403 x188             + 192 x189             -1045 x190             -1479 x191             -1242 x192             + 1360 x193             -1527 x194             + 134 x195             -755 x196             -1118 x197             + 328 x198             + 309 x199             -1102 x200             + 920 x201             -1833 x202             + 1398 x203             + 248 x204             -361 x205             -1281 x206             -1878 x207             -628 x208             + 1155 x209             -374 x210             -1013 x211             + 1396 x212             -1972 x213             -159 x214             -894 x215             -317 x216             + 1634 x217             + 638 x218             + 1639 x219             + 1180 x220             + 1596 x221             -486 x222             + 1941 x223             -1695 x224             -11 x225             + 1429 x226             + 909 x227             -1774 x228             -245 x229             -784 x230             -874 x231             + 29 x232             -615 x233             -122 x234             -1726 x235             + 1026 x236             + 599 x237             -1602 x238             -248 x239             -248 x240             + 1383 x241             + 742 x242             -855 x243             + 1414 x244             -63 x245             + 254 x246             + 451 x247             + 926 x248             + 246 x249             + 1444 x250             + 103 x251             -161 x252             -1044 x253             + 1398 x254             + 1504 x255             -1701 x256             -1823 x257             + 410 x258             -1473 x259             + 1291 x260             + 1628 x261             + 1012 x262             -683 x263             + 368 x264             + 244 x265             -407 x266             -609 x267             -1159 x268             + 1350 x269             -1502 x270             + 1952 x271             + 731 x272             -1406 x273             -906 x274             + 1499 x275             + 533 x276             -1298 x277             -53 x278             -544 x279             -1697 x280             -612 x281             -1086 x282             + 1501 x283             + 1703 x284             -334 x285             + 1002 x286             -643 x287             -155 x288             -590 x289             -114 x290             -867 x291             + 392 x292             + 253 x293             + 1809 x294             -1243 x295             -1506 x296             -601 x297             + 1508 x298             + 694 x299             + 104 x300             -1997 x301             + 643 x302             -1168 x303             -44 x304             -908 x305             -1672 x306             -1514 x307             + 1153 x308             + 1634 x309             + 1302 x310             + 1458 x311             + 376 x312             -430 x313             + 957 x314             + 77 x315             + 1238 x316             -44 x317             -1212 x318             + 438 x319             -1280 x320             + 676 x321             -1075 x322             + 1115 x323             + 283 x324             -1268 x325             -774 x326             -1868 x327             + 133 x328             -1269 x329             + 828 x330             -1766 x331             + 93 x332             -531 x333             + 425 x334             -1954 x335             + 1920 x336             -1893 x337             -108 x338             + 1070 x339             -905 x340             + 548 x341             + 526 x342             + 1474 x343             -1885 x344             + 837 x345             + 905 x346             + 1355 x347             + 147 x348             + 1695 x349             + 1147 x350             + 870 x351             + 1725 x352             -1930 x353             + 1339 x354             + 1363 x355             -1196 x356             -81 x357             + 1497 x358             + 939 x359             + 653 x360             + 1679 x361             -1472 x362             + 100 x363             + 502 x364             -1693 x365             + 149 x366             + 419 x367             -226 x368             -605 x369             -513 x370             + 871 x371             + 1945 x372             -633 x373             + 1699 x374             -1943 x375             -1799 x376             + 601 x377             -1234 x378             + 1707 x379             + 1650 x380             + 1916 x381             + 574 x382             -1275 x383             + 1988 x384             + 1267 x385             -1915 x386             -1211 x387             -816 x388             -1064 x389             -918 x390             -809 x391             -1388 x392             + 969 x393             + 1293 x394             + 1117 x395             + 1279 x396             + 796 x397
Subject To
 c1:   x1 + x4 + x5 + x14 + x22 + x34 - x159 + x160 - 60 x227  = -35
 c2:   - x2 + x3 - 60 x228  = -1
 c3:   - x2 - x4 - x6 + x7 - 60 x229  = -115
 c4:   - x5 + x6 + x8 + x12 - x14 - 60 x230  = -24
 c5:   x9 + x12 - x14 - 60 x231  = -31
 c6:   x10 - x12 - x22 - x34 + x192 - x193 - 60 x232  = -91
 c7:   x11 - x12 - x22 - x34 + x192 - x194 - 60 x233  = -80
 c8:   x13 + x22 - x29 - 60 x234  = 0
 c9:   x17 + x22 + x32 + x212 - 60 x235  = 2
 c10:  - x15 + x18 - 60 x236  = -30
 c11:  - x19 + x20 - 60 x237  = -30
 c12:  x21 - x22 + x29 - 60 x238  = 22
 c13:  x24 + x37 - 60 x239  = 24
 c14:  - x23 + x25 - 60 x240  = -1
 c15:  - x23 + x26 - 60 x241  = -30
 c16:  - x23 + x27 - 60 x242  = -31
 c17:  - x28 + x30 - 60 x243  = -30
 c18:  - x29 + x31 - 60 x244  = -30
 c19:  - x34 + x36 - 60 x245  = -30
 c20:  - x33 + x38 - 60 x246  = -30
 c21:  - x33 + x39 - 60 x247  = -31
 c22:  - x41 + x42 - 60 x248  = -1
 c23:  - x41 + x43 - 60 x249  = -30
 c24:  - x41 + x44 - 60 x250  = -31
 c25:  x32 - x41 + x45 - x54 - x62 - 60 x251  = -122
 c26:  x32 - x41 + x46 - x54 - x62 - 60 x252  = -152
 c27:  x34 - x41 + x47 - 60 x253  = 0
 c28:  x40 - x41 + x48 - 60 x254  = 1
 c29:  x40 - x41 + x49 - 60 x255  = -29
 c30:  - x32 + x41 + x50 - x56 + x62 - 60 x256  = -59
 c31:  - x32 + x41 + x51 - x56 + x62 - 60 x257  = -89
 c32:  - x32 + x41 + x52 + x62 - 60 x258  = -2.84217e-14
 c33:  - x32 + x41 + x53 + x62 - 60 x259  = -30
 c34:  - x54 + x55 - 60 x260  = -30
 c35:  x57 - x62 + x205 - 60 x261  = 0
 c36:  - x56 + x58 - 60 x262  = -30
 c37:  x59 - x62 + x202 - 60 x263  = -30
 c38:  x60 - x62 + x67 - 60 x264  = 1
 c39:  x61 - x62 + x67 - 60 x265  = -29
 c40:  - x62 + x63 - 60 x266  = -30
 c41:  - x32 + x40 + x64 + x67 - 60 x267  = -14
 c42:  - x32 + x40 + x65 + x67 - 60 x268  = -44
 c43:  x66 - x67 + x202 - 60 x269  = -6
 c44:  - x67 + x68 + x74 - 60 x270  = 27
 c45:  x69 + x74 - x205 - 60 x271  = -3
 c46:  x70 + x74 - x202 - 60 x272  = -3
 c47:  x32 - x34 + x71 - x74 + x174 - x175 + x192 - 60 x273  = -156
 c48:  x72 - x74 - x77 + x205 - 60 x274  = -60
 c49:  x32 - x33 + x73 - x74 - 60 x275  = -68
 c50:  x32 - x34 - x74 + x75 + x192 - x193 - 60 x276  = -134
 c51:  - x74 + x76 - x77 + x205 - 60 x277  = -59
 c52:  - x77 + x78 - x202 + x205 - 60 x278  = -60
 c53:  - x23 - x32 - x77 + x79 + x205 - 60 x279  = -167
 c54:  - x32 + x34 - x77 + x80 - x151 + x205 - 60 x280  = -145
 c55:  - x32 + x37 - x77 + x81 + x205 - 60 x281  = -108
 c56:  - x77 + x82 + x135 + x205 - 60 x282  = -45
 c57:  - x77 + x83 + x109 + x205 - 60 x283  = -45
 c58:  - x77 + x84 - x97 + x205 - 60 x284  = -99
 c59:  - x77 + x85 - 60 x285  = -59
 c60:  - x77 + x86 - x202 + x205 - 60 x286  = -59
 c61:  - x32 + x33 - x77 + x87 + x205 - 60 x287  = -116
 c62:  x32 - x34 + x77 + x88 + x192 - x193 - x205 - 60 x288  = -138
 c63:  x32 - x34 + x77 + x89 + x192 - x194 - x205 - 60 x289  = -136
 c64:  - x23 - x32 + x90 + x97 - 60 x290  = -73
 c65:  - x32 + x34 + x91 + x97 - 60 x291  = -27
 c66:  - x32 + x34 + x92 + x97 - 60 x292  = -57
 c67:  - x32 + x35 + x93 + x97 - 60 x293  = -57
 c68:  - x32 + x33 + x94 + x97 - 60 x294  = -56
 c69:  - x32 + x34 + x96 + x97 - x151 - 60 x295  = -87
 c70:  x32 - x37 - x97 + x98 - 60 x296  = -78
 c71:  x32 - x34 - x97 + x99 - 60 x297  = -98
 c72:  x32 - x34 - x97 + x100 - 60 x298  = -68
 c73:  x32 - x33 - x97 + x101 - 60 x299  = -49
 c74:  x32 - x35 - x97 + x102 - 60 x300  = -68
 c75:  x32 - x33 - x97 + x103 - 60 x301  = -86
 c76:  - x97 + x104 - 60 x302  = -30
 c77:  - x97 + x105 - x135 - 60 x303  = -57
 c78:  - x97 + x106 - x109 - 60 x304  = -57
 c79:  - x19 - x22 - x32 + x95 + x97 + x107 - 60 x305  = -99
 c80:  x54 + x62 - x95 - x97 + x108 - 60 x306  = -88
 c81:  - x109 + x110 - 60 x307  = -1
 c82:  - x109 + x111 - 60 x308  = -30
 c83:  - x32 + x34 - x109 + x112 - x151 - 60 x309  = -163
 c84:  - x32 + x37 - x109 + x113 - 60 x310  = -66
 c85:  x109 + x114 - 60 x311  = 24
 c86:  x109 + x115 - x119 - x212 - 60 x312  = 0
 c87:  x32 - x33 + x109 + x116 - 60 x313  = -54
 c88:  x109 + x117 - x135 - 60 x314  = -3
 c89:  x16 + x22 + x32 + x119 + x120 + x212 - 60 x315  = 55
 c90:  x119 + x121 - 60 x316  = 23
 c91:  x29 + x32 + x119 + x122 + x212 - 60 x317  = 39
 c92:  x15 + x22 + x32 + x119 + x123 + x124 + x212 - 60 x318  = 29
 c93:  - x124 + x125 + x131 - 60 x319  = -3
 c94:  - x124 + x126 - x128 - 60 x320  = -63
 c95:  x127 - x128 - x131 - 60 x321  = -57
 c96:  - x15 - x22 + x29 + x128 + x129 - 60 x322  = -6
 c97:  x15 + x22 + x34 + x130 + x131 - x192 + x194 - 60 x323  = 54
 c98:  x56 - x62 + x118 - x119 + x132 - x212 - 60 x324  = -101
 c99:  - x32 + x33 + x118 - x119 + x133 - x212 - 60 x325  = -102
 c100: x16 + x22 + x32 - x118 + x119 + x134 + x212 - 60 x326  = -58
 c101: - x135 + x136 - 60 x327  = -1
 c102: - x32 + x34 - x135 + x137 - x151 - 60 x328  = -138
 c103: - x23 - x32 - x135 + x138 - 60 x329  = -150
 c104: - x32 + x33 - x135 + x139 - 60 x330  = -72
 c105: - x135 + x140 - 60 x331  = -30
 c106: x28 + x32 + x135 + x141 + x143 - 60 x332  = 2
 c107: x142 - x143 + x144 + x145 - 60 x333  = -22
 c108: x146 + x151 - x197 - 60 x334  = -1
 c109: x147 + x151 - x159 - 60 x335  = -3
 c110: x23 + x34 + x148 - x151 - 60 x336  = -16
 c111: x34 - x37 + x149 - x151 - 60 x337  = -100
 c112: - x33 + x34 + x150 - x151 - 60 x338  = -71
 c113: x34 - x35 - x151 + x152 - 60 x339  = -90
 c114: - x151 + x153 - 60 x340  = -30
 c115: - x14 - x22 - x34 + x154 + x159 - 60 x341  = -74
 c116: - x15 - x22 - x34 + x155 + x159 - 60 x342  = -75
 c117: x156 - x159 + x197 - 60 x343  = -1
 c118: x157 - x159 + x169 + x174 + x192 - 60 x344  = -22
 c119: x158 - x159 + x174 + x192 - 60 x345  = -53
 c120: - x159 + x162 - 60 x346  = -30
 c121: x34 - x35 - x159 + x163 - 60 x347  = -90
 c122: - x159 + x164 + x197 - 60 x348  = -15
 c123: x32 - x34 + x159 - x161 + x165 + x212 - 60 x349  = -75
 c124: x159 - x161 + x166 - x197 - 60 x350  = -110
 c125: x2 + x4 + x5 + x14 + x22 + x34 - x159 + x161 + x167 - 60 x351  = -31
 c126: - x160 + x161 + x168 - 60 x352  = -3
 c127: x32 - x34 + x170 + x174 + x192 - x205 - 60 x353  = -97
 c128: - x169 + x171 - 60 x354  = -30
 c129: x32 - x34 + x172 + x174 + x192 - x202 - 60 x355  = -67
 c130: x173 + x174 + x192 - x197 - 60 x356  = -53
 c131: - x174 + x176 + x191 - x192 - 60 x357  = -45
 c132: - x174 + x177 - x180 - 60 x358  = -72
 c133: - x175 + x178 - 60 x359  = -30
 c134: - x174 + x175 + x179 - x180 - 60 x360  = -73
 c135: x180 + x181 - x186 - 60 x361  = -3
 c136: x180 + x182 + x191 - x192 - 60 x362  = 26
 c137: x180 + x183 - 60 x363  = 56
 c138: x34 - x35 + x180 + x184 - x192 - 60 x364  = -33
 c139: x185 - x186 - x191 + x192 - 60 x365  = -30
 c140: - x169 - x174 - x186 + x187 - 60 x366  = -133
 c141: x186 + x188 - x193 - 60 x367  = 0
 c142: x189 + x191 - x192 - 60 x368  = 29
 c143: - x174 + x175 + x190 + x191 - x192 - 60 x369  = -46
 c144: - x169 - x175 + x195 - 60 x370  = -59
 c145: - x15 - x22 - x34 + x196 + x197 - 60 x371  = -82
 c146: x34 - x35 - x197 + x198 - 60 x372  = -90
 c147: x159 - x160 - x197 + x199 - 60 x373  = -110
 c148: x200 + x202 - x205 - 60 x374  = -3
 c149: x32 - x33 + x201 - x202 - 60 x375  = -68
 c150: x32 - x34 + x192 - x193 - x202 + x203 - 60 x376  = -134
 c151: x32 - x33 + x204 - x205 - 60 x377  = -68
 c152: - x54 - x56 + x206 - 60 x378  = -59
 c153: x35 - x40 + x207 - 60 x379  = 27
 c154: - x34 + x35 + x208 - 60 x380  = -33
 c155: - x34 + x35 + x209 - 60 x381  = -3
 c156: - x23 - x33 + x210 - 60 x382  = -58
 c157: - x33 + x37 + x211 - 60 x383  = -34
 c158: x23 - x28 + x213 - 60 x384  = 0
 c159: - x29 - x37 + x214 - 60 x385  = -84
 c160: - x23 - x37 + x215 - 60 x386  = -87
 c161: - x16 + x19 + x216 - 60 x387  = -3
 c162: x19 + x22 + x32 + x212 + x217 - 60 x388  = 59
 c163: - x19 - x22 + x29 + x218 - 60 x389  = -5
 c164: x16 + x22 + x32 + x212 + x219 - 60 x390  = 29
 c165: x16 + x22 + x32 + x212 + x220 - 60 x391  = 59
 c166: - x14 - x22 - x34 + x192 - x194 + x221 - 60 x392  = -168
 c167: x193 - x194 + x222 - 60 x393  = -50
 c168: - x193 + x194 + x223 - 60 x394  = -1
 c169: - x193 + x194 + x224 - 60 x395  = -16
 c170: - x14 - x22 - x34 + x192 - x193 + x225 - 60 x396  = -119
 c171: x159 - x160 - x192 + x193 + x226 - 60 x397  = -15
 c172: - 30 x28 - 30 x30 <= -900
 c173: - 30 x50 - 30 x51 <= -900
 c174: - 31 x136 - 29 x140 <= -899
 c175: - 30 x52 - 30 x53 <= -900
 c176: - 30 x42 - 30 x44 <= -900
 c177: - 22 x94 - 22 x103 <= -836
 c178: - 31 x110 - 29 x111 <= -899
 c179: - 30 x109 - 30 x111 <= -900
 c180: - 31 x14 - 29 x18 - 29 x154 - 31 x155 <= -899
 c181: - 30 x13 - 30 x22 - 30 x31 <= -900
 c182: - 30 x29 - 30 x31 <= -900
 c183: - 30 x15 - 30 x18 <= -900
 c184: - 30 x64 - 30 x65 <= -900
 c185: - 50 x138 - 50 x141 - 50 x142 - 50 x144 - 50 x145 - 50 x213 <= -500
 c186: - 30 x91 - 30 x92 <= -900
 c187: - 30 x159 - 30 x162 <= -900
 c188: - 30 x135 - 30 x140 <= -900
 c189: - 10 x80 - 10 x89 - 10 x130 - 10 x131 - 10 x146 - 10 x196 <= -500
 c190: - 8 x173 - 8 x177 - 8 x184 - 52 x198 <= -416
 c191: - 30 x57 - 30 x59 - 30 x85 - 30 x86 <= -900
 c192: - 6 x111 - 6 x114 <= -324
 c193: - 5 x91 - 5 x99 <= -275
 c194: - 5 x93 - 5 x102 <= -275
 c195: - 50 x193 - 10 x194 - 50 x222 <= -500
 c196: - 8 x158 - 52 x163 - 8 x177 - 8 x184 <= -416
 c197: - 39 x1 - 39 x4 - 39 x5 - 39 x154 - 39 x157 - 39 x187 - 39 x188
       - 39 x226 <= -819
 c198: - 6 x66 - 54 x67 - 6 x202 <= -324
 c199: x59 - x63 + x202 <= 0
 c200: - 6 x222 - 6 x224 <= -324
 c201: - 28 x47 - 32 x49 - 32 x91 - 28 x93 - 32 x207 <= -896
 c202: - 28 x138 - 28 x141 - 28 x143 - 28 x213 <= -896
 c203: - x138 - x141 - x143 - x213 <= -32
 c204: - 30 x25 - 30 x27 <= -900
 c205: - 37 x81 - 37 x89 - 37 x127 - 37 x129 - 37 x130 - 37 x214 <= -851
 c206: - 30 x151 - 30 x153 <= -900
 c207: - 43 x47 - 17 x48 - 43 x174 - 17 x177 - 17 x184 - 43 x192 - 17 x207
       <= -731
 c208: x40 - x44 + x49 <= 2
 c209: - x88 + x89 + x224 <= 46
 c210: - 22 x47 - 22 x52 - 22 x57 - 22 x170 - 22 x176 - 22 x191 <= -836
 c211: - 24 x47 - 24 x53 - 24 x60 - 24 x68 - 24 x71 - 24 x190 - 24 x191 <= -864
 c212: - 20 x30 - 20 x32 - 20 x140 - 20 x141 - 20 x142 - 20 x144 - 20 x145
       <= -800
 c213: - x93 + x96 - x152 <= 0
 c214: - x293 + x295 - x339 <= -1
 c215: - 35 x157 - 25 x158 - 35 x172 - 35 x187 - 35 x188 - 25 x203 <= -875
 c216: - 35 x172 - 25 x173 - 35 x199 - 25 x203 - 25 x226 <= -875
 c217: - 37 x112 - 37 x115 - 37 x123 - 37 x124 - 37 x146 - 37 x196 <= -851
 c218: x114 - x115 - x121 + x212 <= 1
 c219: - 30 x24 - 30 x31 - 30 x214 <= -900
 c220: - 32 x66 - 28 x68 - 28 x72 - 32 x86 <= -896
 c221: x36 - x43 + x47 <= 0
 c222: x245 - x249 + x253 <= 0
 c223: x36 - x44 + x47 <= 1
 c224: x43 - x44 <= 1
 c225: - 8 x16 - 8 x22 - 8 x36 - 8 x47 - 8 x50 - 8 x132 - 8 x134 <= -416
 c226: - x16 - x22 - x36 - x47 - x50 - x132 - x134 <= -52
 c227: x26 - x30 + x213 <= 0
 c228: - 7 x118 - 7 x120 - 53 x134 <= -371
 c229: - 5 x92 - 5 x100 <= -275
 c230: - 4 x78 - 4 x88 - 56 x203 <= -224
 c231: - x92 - x100 <= -55
 c232: - 8 x55 - 8 x63 - 8 x107 - 8 x108 - 8 x212 - 8 x217 <= -416
 c233: - x55 - x63 - x107 - x108 - x212 - x217 <= -52
 c234: - x260 - x266 - x305 - x306 - x388 <= -4
 c235: - 10 x95 - 10 x104 - 10 x107 - 10 x212 - 10 x217 <= -500
 c236: - x95 - x104 - x107 - x212 - x217 <= -50
 c237: - 48 x107 - 48 x108 - 48 x132 - 48 x134 - 48 x206 - 48 x216 <= -576
 c238: - 6 x31 - 6 x37 - 54 x214 <= -324
 c239: - 20 x45 - 20 x51 - 20 x107 - 20 x108 - 20 x132 - 20 x134 - 20 x216
       <= -800
 c240: - x31 - x37 + x214 <= -54
 c241: - x45 - x51 - x107 - x108 - x132 - x134 - x216 <= -40
 c242: - 29 x157 - 31 x158 - 29 x169 <= -899
 c243: - 30 x97 - 30 x104 <= -900
 c244: - 10 x113 - 10 x115 - 10 x123 - 10 x126 - 10 x129 - 10 x214 <= -500
 c245: - 22 x84 - 22 x89 - 22 x91 - 22 x192 - 38 x194 <= -836
 c246: - 18 x81 - 42 x87 - 42 x211 <= -756
 c247: - 55 x59 - 5 x61 - 5 x66 <= -275
 c248: - 8 x54 - 8 x57 - 8 x107 - 8 x108 - 8 x205 - 8 x212 - 8 x217 <= -416
 c249: - 12 x65 - 12 x68 - 12 x71 - 12 x179 - 12 x184 - 12 x207 <= -576
 c250: - 7 x54 - 7 x60 - 7 x67 - 7 x107 - 7 x108 - 7 x212 - 7 x217 <= -371
 c251: - 8 x16 - 8 x22 - 8 x41 - 8 x51 - 8 x132 - 8 x134 <= -416
 c252: - 9 x78 - 9 x89 - 51 x172 - 51 x174 - 51 x194 <= -459
 c253: - 5 x7 - 5 x8 - 5 x12 - 5 x22 - 5 x32 - 5 x165 - 5 x167 - 5 x212 <= -275
 c254: - 7 x16 - 7 x22 - 7 x40 - 7 x48 - 7 x51 - 7 x132 - 7 x134 <= -371
 c255: - 3 x111 - 3 x117 - 57 x140 <= -171
 c256: - 22 x31 - 22 x39 - 22 x87 - 22 x89 - 22 x127 - 22 x129 - 22 x130
       <= -836
 c257: - x105 + x106 + x117 <= 57
 c258: - 33 x90 - 33 x104 - 33 x140 - 33 x141 - 33 x142 - 33 x144 - 33 x145
       - 33 x213 <= -891
 c259: x5 - x6 - x8 + x9 <= -7
 c260: - x230 + x231 <= 0
 c261: - x1 - x4 - x5 - x88 + x89 - x221 - x226 <= -20
 c262: - x227 - x288 + x289 - x392 - x397 <= -4
 c263: - x104 + x105 - x140 <= 3
 c264: - x302 + x303 - x331 <= 0
 c265: - 9 x96 - 9 x104 - 51 x137 - 9 x140 <= -459
 c266: - 38 x146 - 38 x153 - 22 x173 - 22 x174 - 22 x192 <= -836
 c267: x61 - x63 + x67 <= 1
 c268: x265 - x266 <= 0
 c269: - 35 x111 - 25 x112 - 35 x137 - 25 x140 <= -875
 c270: - 32 x79 - 28 x81 - 28 x215 <= -896
 c271: - 8 x87 - 8 x88 - 8 x201 - 52 x203 <= -416
 c272: - 4 x81 - 56 x87 - 4 x133 - 4 x134 - 4 x214 - 4 x216 - 4 x218 <= -224
 c273: - 22 x11 - 38 x12 - 38 x22 - 22 x31 - 38 x81 - 38 x89 - 38 x214 <= -836
 c274: x183 - x184 + x192 - x209 <= 32
 c275: x363 - x364 - x381 <= -1
 c276: - 15 x1 - 15 x4 - 15 x5 - 45 x31 - 45 x40 - 15 x81 - 15 x88 - 15 x154
       - 15 x158 - 15 x177 - 15 x184 - 15 x207 - 15 x214 - 15 x226 <= -675
 c277: - 16 x31 - 16 x43 - 16 x51 - 16 x132 - 16 x134 - 16 x216 - 16 x218
       <= -704
 c278: - x31 - x43 - x51 - x132 - x134 - x216 - x218 <= -44
 c279: - 12 x17 - 12 x22 - 12 x40 - 12 x64 - 12 x67 - 12 x212 <= -576
 c280: - x21 + x22 + x37 - x214 <= 2
 c281: - 30 x60 - 30 x61 <= -900
 c282: - 29 x55 - 29 x57 - 29 x107 - 29 x108 - 31 x118 - 31 x123 - 31 x124
       - 29 x134 - 29 x170 - 31 x173 - 31 x196 - 29 x216 <= -899
 c283: - 32 x1 - 32 x4 - 32 x5 - 32 x87 - 32 x88 - 32 x147 - 32 x150 - 32 x154
       - 32 x226 <= -896
 c284: - 34 x1 - 34 x4 - 34 x5 - 34 x154 - 34 x162 - 26 x192 - 34 x193
       - 34 x226 <= -884
 c285: - x146 - x152 + x198 <= 1
 c286: - x334 - x339 + x372 <= 0
 c287: - 19 x55 - 19 x56 - 19 x107 - 19 x108 - 19 x132 - 19 x134 - 19 x216
       <= -779
 c288: - 48 x174 - 12 x177 - 48 x180 <= -576
 c289: - x180 - x184 + x192 - x208 <= -54
 c290: - x364 - x380 <= -2
 c291: - 22 x47 - 22 x53 - 22 x59 - 22 x71 - 38 x76 - 22 x86 - 22 x190
       - 22 x191 <= -836
 c292: - 14 x30 - 14 x40 - 14 x65 - 14 x67 - 46 x138 - 14 x140 - 46 x213
       <= -644
 c293: - 30 x77 - 30 x78 - 30 x170 - 30 x172 <= -900
 c294: - x10 + x11 + x224 <= 55
 c295: - x232 + x233 + x395 <= 1
 c296: - x9 - x10 + x225 <= 3
 c297: - x231 - x232 + x396 <= 0
 c298: - 11 x27 - 11 x39 - 49 x79 - 11 x87 <= -539
 c299: - 30 x23 - 30 x26 <= -900
 c300: - 31 x25 - 29 x26 <= -899
 c301: - 34 x91 - 34 x104 - 34 x170 - 34 x174 - 34 x192 - 26 x205 <= -884
 c302: - 25 x30 - 25 x40 - 25 x140 - 25 x141 - 25 x142 - 25 x144 - 25 x145
       - 35 x170 - 35 x177 - 35 x184 - 25 x205 - 35 x207 <= -875
 c303: - 30 x54 - 30 x55 <= -900
 c304: x146 - x147 - x155 + x196 <= -5
 c305: - 4 x72 - 56 x75 - 4 x88 <= -224
 c306: - 32 x137 - 28 x138 - 28 x148 <= -896
 c307: - x170 + x172 + x200 <= 27
 c308: - x353 + x355 + x374 <= 0
 c309: - 14 x94 - 14 x104 - 14 x140 - 14 x141 - 14 x142 - 14 x144 - 14 x145
       - 14 x210 - 14 x213 <= -644
 c310: - 20 x67 - 40 x68 - 40 x76 - 20 x87 - 20 x103 - 40 x104 <= -800
 c311: - 18 x47 - 18 x51 - 18 x81 - 18 x89 - 18 x118 - 18 x123 - 18 x126
       - 18 x129 - 18 x132 - 18 x192 - 42 x194 - 18 x214 <= -756
 c312: - x175 - 59 x177 - x179 <= -59
 c313: - 12 x72 - 48 x75 - 12 x89 - 48 x222 <= -576
 c314: - x104 + x106 - x111 <= 3
 c315: - x302 + x304 - x308 <= 0
 c316: x80 - x81 - x149 <= 3
 c317: x280 - x281 - x337 <= -1
 c318: - 6 x70 - 6 x76 - 6 x88 - 54 x203 <= -324
 c319: - 11 x20 - 11 x22 - 11 x43 - 11 x51 - 11 x132 - 11 x134 - 11 x216
       <= -539
 c320: - 10 x93 - 10 x106 - 10 x115 - 10 x123 - 10 x124 - 10 x155 - 10 x163
       <= -500
 c321: - x20 - x22 - x43 - x51 - x132 - x134 - x216 <= -49
 c322: - 35 x47 - 35 x51 - 25 x67 - 35 x68 - 35 x71 - 25 x111 - 25 x115
       - 35 x118 - 35 x132 - 35 x190 - 35 x191 <= -875
 c323: - 11 x55 - 11 x62 - 11 x107 - 11 x108 - 11 x212 - 11 x216 - 11 x219
       <= -539
 c324: - x55 - x62 - x107 - x108 - x212 - x216 - x219 <= -49
 c325: - 16 x47 - 16 x53 - 16 x59 - 16 x78 - 16 x89 - 16 x192 - 44 x194 <= -704
 c326: - 5 x73 - 55 x76 - 5 x87 <= -275
 c327: - x216 + x217 - x220 <= 3
 c328: - x387 + x388 - x391 <= 0
 c329: - 15 x158 - 45 x160 - 45 x172 - 15 x203 - 15 x226 <= -675
 c330: - x160 + x164 + x199 <= 55
 c331: x348 + x373 <= 3
 c332: - 20 x58 - 40 x59 - 20 x118 - 20 x123 - 20 x124 - 20 x132 - 40 x172
       - 20 x173 - 20 x196 <= -800
 c333: - 17 x1 - 17 x4 - 17 x5 - 17 x18 - 17 x22 - 17 x40 - 17 x64 - 17 x68
       - 17 x76 - 17 x88 - 17 x154 - 17 x156 - 43 x196 - 17 x226 <= -731
 c334: x1 - x3 - x167 + x168 <= -6
 c335: x227 - x228 - x351 + x352 <= 0
 c336: - 32 x79 - 28 x82 - 28 x138 <= -896
 c337: - 15 x65 - 15 x66 - 15 x172 - 15 x177 - 15 x184 - 15 x207 <= -675
 c338: - 25 x86 - 35 x87 - 25 x170 - 35 x172 - 35 x204 <= -875
 c339: - 18 x1 - 18 x4 - 18 x5 - 18 x18 - 18 x22 - 18 x40 - 18 x64 - 18 x68
       - 18 x76 - 18 x88 - 42 x146 - 18 x147 - 18 x154 - 42 x196 - 18 x226
       <= -756
 c340: - 21 x81 - 21 x89 - 21 x122 - 39 x123 - 39 x125 - 21 x130 - 21 x214
       <= -819
 c341: - 34 x67 - 26 x68 - 26 x72 - 26 x88 - 34 x165 - 26 x166 - 26 x172
       - 34 x173 - 34 x203 - 34 x212 <= -884
 c342: - 26 x1 - 26 x4 - 26 x5 - 26 x9 - 26 x12 - 26 x22 - 26 x40 - 26 x64
       - 26 x68 - 26 x72 - 26 x88 - 26 x226 <= -884
 c343: - 45 x155 - 45 x163 - 15 x173 - 15 x177 - 15 x184 - 15 x196 <= -675
 c344: - 33 x147 - 33 x153 - 27 x159 <= -891
 c345: x82 - x87 + x139 <= 59
 c346: x282 - x287 + x330 <= 1
 c347: - 30 x67 - 30 x68 - 30 x69 - 30 x205 <= -900
 c348: - 15 x13 - 15 x22 - 15 x39 - 45 x81 - 15 x87 - 45 x214 <= -675
 c349: - 30 x66 - 30 x68 - 30 x76 - 30 x88 - 30 x203 <= -900
 c350: - 30 x169 - 30 x171 <= -900
 c351: - 17 x47 - 17 x51 - 17 x71 - 43 x72 - 17 x83 - 43 x115 - 17 x118
       - 17 x132 - 17 x190 - 17 x191 <= -731
 c352: - 19 x93 - 19 x104 - 19 x157 - 41 x161 - 19 x165 - 19 x171 - 19 x177
       - 19 x184 - 19 x212 <= -779
 c353: - 17 x38 - 43 x44 - 17 x47 - 17 x71 - 43 x72 - 17 x87 - 17 x190
       - 17 x191 <= -731
 c354: - 41 x122 - 19 x123 - 19 x126 - 19 x129 <= -779
 c355: - x72 + x76 <= 1
 c356: - x274 + x277 <= 0
 c357: - x166 - x168 + x199 <= 3
 c358: - 33 x91 - 27 x93 - 33 x209 <= -891
 c359: - x350 - x352 + x373 <= 0
 c360: - 25 x115 - 35 x116 - 25 x122 - 25 x211 - 25 x214 <= -875
 c361: x84 - x87 - x101 <= 6
 c362: x46 + x53 - x54 <= 58
 c363: x284 - x287 - x299 <= -1
 c364: x252 + x259 <= 4
 c365: - 31 x77 - 29 x86 - 29 x170 - 31 x172 <= -899
 c366: - x181 + x183 + x186 <= 59
 c367: x35 - x36 + x208 <= 57
 c368: - x36 + x40 - x207 + x208 <= 30
 c369: - x361 + x363 <= 0
 c370: - x245 + x380 <= 1
 c371: - 30 x175 - 30 x178 <= -900
Bounds
 0 <= x1 <= 4
 0 <= x2 <= 54
 0 <= x3 <= 54
 0 <= x4 <= 59
 0 <= x5 <= 4
 0 <= x6 <= 54
 0 <= x7 <= 59
 0 <= x8 <= 4
 0 <= x9 <= 48
 0 <= x10 <= 58
 0 <= x11 <= 58
 0 <= x12 <= 4
 0 <= x13 <= 52
 0 <= x14 <= 59
 0 <= x15 <= 59
 0 <= x16 <= 59
 0 <= x17 <= 59
 0 <= x18 <= 59
 0 <= x19 <= 54
 0 <= x20 <= 54
 0 <= x21 <= 52
 0 <= x22 <= 4
 0 <= x23 <= 54
 0 <= x24 <= 54
 0 <= x25 <= 59
 0 <= x26 <= 54
 0 <= x27 <= 59
 0 <= x28 <= 59
 0 <= x29 <= 59
 0 <= x30 <= 59
 0 <= x31 <= 59
 0 <= x32 <= 59
 0 <= x33 <= 54
 0 <= x34 <= 51
 0 <= x35 <= 51
 0 <= x36 <= 51
 0 <= x37 <= 54
 0 <= x38 <= 54
 0 <= x39 <= 59
 0 <= x40 <= 6
 0 <= x41 <= 54
 0 <= x42 <= 54
 0 <= x43 <= 54
 0 <= x44 <= 54
 0 <= x45 <= 57
 0 <= x46 <= 57
 0 <= x47 <= 6
 0 <= x48 <= 54
 0 <= x49 <= 54
 0 <= x50 <= 59
 0 <= x51 <= 59
 0 <= x52 <= 59
 0 <= x53 <= 59
 0 <= x54 <= 59
 0 <= x55 <= 59
 0 <= x56 <= 58
 0 <= x57 <= 6
 0 <= x58 <= 58
 0 <= x59 <= 6
 0 <= x60 <= 54
 0 <= x61 <= 54
 0 <= x62 <= 54
 0 <= x63 <= 54
 0 <= x64 <= 59
 0 <= x65 <= 59
 0 <= x66 <= 59
 0 <= x67 <= 6
 0 <= x68 <= 6
 0 <= x69 <= 54
 0 <= x70 <= 54
 0 <= x71 <= 4
 0 <= x72 <= 59
 0 <= x73 <= 52
 0 <= x74 <= 51
 0 <= x75 <= 59
 0 <= x76 <= 54
 0 <= x77 <= 59
 0 <= x78 <= 59
 0 <= x79 <= 59
 0 <= x80 <= 59
 0 <= x81 <= 59
 0 <= x82 <= 54
 0 <= x83 <= 54
 0 <= x84 <= 54
 0 <= x85 <= 54
 0 <= x86 <= 54
 0 <= x87 <= 52
 0 <= x88 <= 59
 0 <= x89 <= 4
 0 <= x90 <= 53
 0 <= x91 <= 59
 0 <= x92 <= 59
 0 <= x93 <= 59
 0 <= x94 <= 59
 0 <= x95 <= 50
 0 <= x96 <= 52
 0 <= x97 <= 54
 0 <= x98 <= 53
 0 <= x99 <= 52
 0 <= x100 <= 52
 0 <= x101 <= 53
 0 <= x102 <= 52
 0 <= x103 <= 59
 0 <= x104 <= 54
 0 <= x105 <= 54
 0 <= x106 <= 54
 0 <= x107 <= 4
 0 <= x108 <= 5
 0 <= x109 <= 54
 0 <= x110 <= 59
 0 <= x111 <= 59
 0 <= x112 <= 59
 0 <= x113 <= 59
 0 <= x114 <= 54
 0 <= x115 <= 4
 0 <= x116 <= 54
 0 <= x117 <= 54
 0 <= x118 <= 59
 0 <= x119 <= 53
 0 <= x120 <= 53
 0 <= x121 <= 53
 0 <= x122 <= 56
 0 <= x123 <= 4
 0 <= x124 <= 59
 0 <= x125 <= 54
 0 <= x126 <= 39
 0 <= x127 <= 59
 0 <= x128 <= 54
 0 <= x129 <= 4
 0 <= x130 <= 4
 0 <= x131 <= 59
 0 <= x132 <= 5
 0 <= x133 <= 51
 0 <= x134 <= 4
 0 <= x135 <= 54
 0 <= x136 <= 59
 0 <= x137 <= 59
 0 <= x138 <= 59
 0 <= x139 <= 54
 0 <= x140 <= 54
 0 <= x141 <= 4
 0 <= x142 <= 4
 0 <= x143 <= 56
 0 <= x144 <= 59
 0 <= x145 <= 4
 0 <= x146 <= 4
 0 <= x147 <= 59
 0 <= x148 <= 54
 0 <= x149 <= 54
 0 <= x150 <= 54
 0 <= x151 <= 54
 0 <= x152 <= 54
 0 <= x153 <= 54
 0 <= x154 <= 4
 0 <= x155 <= 59
 0 <= x156 <= 58
 0 <= x157 <= 4
 0 <= x158 <= 59
 0 <= x159 <= 59
 0 <= x160 <= 58
 0 <= x161 <= 58
 0 <= x162 <= 59
 0 <= x163 <= 59
 0 <= x164 <= 52
 0 <= x165 <= 4
 0 <= x166 <= 58
 0 <= x167 <= 4
 0 <= x168 <= 49
 0 <= x169 <= 58
 0 <= x170 <= 4
 0 <= x171 <= 58
 0 <= x172 <= 4
 0 <= x173 <= 59
 0 <= x174 <= 59
 0 <= x175 <= 58
 0 <= x176 <= 59
 0 <= x177 <= 59
 0 <= x178 <= 58
 0 <= x179 <= 59
 0 <= x180 <= 59
 0 <= x181 <= 57
 0 <= x182 <= 58
 0 <= x183 <= 58
 0 <= x184 <= 4
 0 <= x185 <= 57
 0 <= x186 <= 57
 0 <= x187 <= 59
 0 <= x188 <= 4
 0 <= x189 <= 58
 0 <= x190 <= 59
 0 <= x191 <= 4
 0 <= x192 <= 4
 0 <= x193 <= 59
 0 <= x194 <= 59
 0 <= x195 <= 58
 0 <= x196 <= 4
 0 <= x197 <= 59
 0 <= x198 <= 59
 0 <= x199 <= 58
 0 <= x200 <= 54
 0 <= x201 <= 52
 0 <= x202 <= 51
 0 <= x203 <= 59
 0 <= x204 <= 52
 0 <= x205 <= 51
 0 <= x206 <= 59
 0 <= x207 <= 6
 0 <= x208 <= 54
 0 <= x209 <= 54
 0 <= x210 <= 53
 0 <= x211 <= 53
 0 <= x212 <= 4
 0 <= x213 <= 4
 0 <= x214 <= 4
 0 <= x215 <= 54
 0 <= x216 <= 59
 0 <= x217 <= 59
 0 <= x218 <= 52
 0 <= x219 <= 54
 0 <= x220 <= 54
 0 <= x221 <= 58
 0 <= x222 <= 59
 0 <= x223 <= 58
 0 <= x224 <= 52
 0 <= x225 <= 58
 0 <= x226 <= 4
 0 <= x227 <= 4
      x228 = 0
 0 <= x229 <= 2
 0 <= x230 <= 1
 0 <= x231 <= 1
 0 <= x232 <= 2
 0 <= x233 <= 2
      x234 = 0
 0 <= x235 <= 2
 0 <= x236 <= 1
 0 <= x237 <= 1
 0 <= x238 <= 1
 0 <= x239 <= 1
 0 <= x240 <= 1
 0 <= x241 <= 1
 0 <= x242 <= 1
 0 <= x243 <= 1
 0 <= x244 <= 1
 0 <= x245 <= 1
 0 <= x246 <= 1
 0 <= x247 <= 1
      x248 = 0
 0 <= x249 <= 1
 0 <= x250 <= 1
 0 <= x251 <= 3
 0 <= x252 <= 4
      x253 = 0
      x254 = 0
 0 <= x255 <= 1
 0 <= x256 <= 3
 0 <= x257 <= 4
 0 <= x258 <= 2
 0 <= x259 <= 3
 0 <= x260 <= 1
      x261 = 0
 0 <= x262 <= 1
 0 <= x263 <= 1
      x264 = 0
 0 <= x265 <= 1
 0 <= x266 <= 1
 0 <= x267 <= 1
 0 <= x268 <= 1
 0 <= x269 <= 1
      x270 = 0
 0 <= x271 <= 1
 0 <= x272 <= 1
 0 <= x273 <= 4
 0 <= x274 <= 2
 0 <= x275 <= 2
 0 <= x276 <= 4
 0 <= x277 <= 2
 0 <= x278 <= 2
 0 <= x279 <= 4
 0 <= x280 <= 5
 0 <= x281 <= 4
 0 <= x282 <= 3
 0 <= x283 <= 3
 0 <= x284 <= 3
 0 <= x285 <= 1
 0 <= x286 <= 2
 0 <= x287 <= 4
 0 <= x288 <= 5
 0 <= x289 <= 4
 0 <= x290 <= 3
 0 <= x291 <= 3
 0 <= x292 <= 3
 0 <= x293 <= 3
 0 <= x294 <= 3
 0 <= x295 <= 4
 0 <= x296 <= 3
 0 <= x297 <= 3
 0 <= x298 <= 2
 0 <= x299 <= 2
 0 <= x300 <= 2
 0 <= x301 <= 3
 0 <= x302 <= 1
 0 <= x303 <= 1
 0 <= x304 <= 1
 0 <= x305 <= 3
 0 <= x306 <= 3
 0 <= x307 <= 1
 0 <= x308 <= 1
 0 <= x309 <= 4
 0 <= x310 <= 2
 0 <= x311 <= 1
      x312 = 0
 0 <= x313 <= 3
 0 <= x314 <= 1
 0 <= x315 <= 2
 0 <= x316 <= 1
 0 <= x317 <= 3
 0 <= x318 <= 3
 0 <= x319 <= 1
 0 <= x320 <= 1
 0 <= x321 <= 1
 0 <= x322 <= 2
 0 <= x323 <= 3
 0 <= x324 <= 3
 0 <= x325 <= 4
 0 <= x326 <= 4
 0 <= x327 <= 1
 0 <= x328 <= 4
 0 <= x329 <= 3
 0 <= x330 <= 3
 0 <= x331 <= 1
 0 <= x332 <= 3
 0 <= x333 <= 1
      x334 = 0
 0 <= x335 <= 1
 0 <= x336 <= 2
 0 <= x337 <= 3
 0 <= x338 <= 2
 0 <= x339 <= 3
 0 <= x340 <= 1
 0 <= x341 <= 2
 0 <= x342 <= 3
 0 <= x343 <= 1
 0 <= x344 <= 2
 0 <= x345 <= 2
 0 <= x346 <= 1
 0 <= x347 <= 3
 0 <= x348 <= 2
 0 <= x349 <= 3
 0 <= x350 <= 3
 0 <= x351 <= 5
 0 <= x352 <= 1
 0 <= x353 <= 3
 0 <= x354 <= 1
 0 <= x355 <= 3
 0 <= x356 <= 2
 0 <= x357 <= 1
 0 <= x358 <= 2
 0 <= x359 <= 1
 0 <= x360 <= 3
 0 <= x361 <= 1
 0 <= x362 <= 1
 0 <= x363 <= 1
 0 <= x364 <= 2
 0 <= x365 <= 1
 0 <= x366 <= 3
 0 <= x367 <= 1
      x368 = 0
 0 <= x369 <= 2
 0 <= x370 <= 1
 0 <= x371 <= 2
 0 <= x372 <= 3
 0 <= x373 <= 3
 0 <= x374 <= 1
 0 <= x375 <= 2
 0 <= x376 <= 4
 0 <= x377 <= 2
 0 <= x378 <= 1
      x379 = 0
 0 <= x380 <= 2
 0 <= x381 <= 1
 0 <= x382 <= 1
 0 <= x383 <= 2
      x384 = 0
 0 <= x385 <= 1
 0 <= x386 <= 2
 0 <= x387 <= 1
 0 <= x388 <= 2
 0 <= x389 <= 1
 0 <= x390 <= 2
 0 <= x391 <= 2
 0 <= x392 <= 3
 0 <= x393 <= 2
 0 <= x394 <= 1
 0 <= x395 <= 2
 0 <= x396 <= 3
 0 <= x397 <= 2
Binaries
 x230  x231  x236  x237  x238  x239  x240  x241  x242  x243  x244  x245  x246 
 x247  x249  x250  x255  x260  x262  x263  x265  x266  x267  x268  x269  x271 
 x272  x285  x302  x303  x304  x307  x308  x311  x314  x316  x319  x320  x321 
 x327  x331  x333  x335  x340  x343  x346  x352  x354  x357  x359  x361  x362 
 x363  x365  x367  x370  x374  x378  x381  x382  x385  x387  x389  x394 
Generals
 x227  x228  x229  x232  x233  x234  x235  x248  x251  x252  x253  x254  x256 
 x257  x258  x259  x261  x264  x270  x273  x274  x275  x276  x277  x278  x279 
 x280  x281  x282  x283  x284  x286  x287  x288  x289  x290  x291  x292  x293 
 x294  x295  x296  x297  x298  x299  x300  x301  x305  x306  x309  x310  x312 
 x313  x315  x317  x318  x322  x323  x324  x325  x326  x328  x329  x330  x332 
 x334  x336  x337  x338  x339  x341  x342  x344  x345  x347  x348  x349  x350 
 x351  x353  x355  x356  x358  x360  x364  x366  x368  x369  x371  x372  x373 
 x375  x376  x377  x379  x380  x383  x384  x386  x388  x390  x391  x392  x393 
 x395  x396  x397 
End
